experiment/data/lkh-res/Vrp-Set-X-n237/Vrp-Set-X-n237-lkh/0.lkh1.vrp
NAME : 0
COMMENT : CVRP Instance
TYPE : CVRP
DIMENSION : 237
EDGE_WEIGHT_TYPE : EUC_2D
CAPACITY : 18
NODE_COORD_SECTION
1	0	0
2	8000	38600
3	52100	65200
4	59700	93600
5	83600	6900
6	50300	98700
7	61800	16900
8	11500	66200
9	31200	17500
10	7800	8300
11	36400	31700
12	1200	45400
13	98000	53700
14	40300	38300
15	14400	44300
16	73900	46400
17	88600	51100
18	90400	10600
19	79400	53900
20	82100	60800
21	78100	34700
22	33600	49000
23	10100	73600
24	36500	6800
25	61800	68400
26	28200	28600
27	31100	80600
28	55700	79300
29	5400	5000
30	65100	26400
31	61900	66100
32	15600	99400
33	95000	36900
34	18300	70700
35	67300	85600
36	500	65100
37	86700	44900
38	94600	91400
39	7500	8200
40	52200	800
41	57300	49300
42	83300	69900
43	88100	67700
44	20100	7700
45	53600	59300
46	6700	89500
47	9900	11300
48	12000	13300
49	42800	23100
50	70100	84500
51	19000	50800
52	43100	21800
53	62600	78200
54	11300	91400
55	56900	11700
56	86500	63900
57	70800	900
58	51100	97700
59	10400	83800
60	22900	46700
61	95600	56800
62	43100	92900
63	61500	70700
64	91300	4200
65	85400	50400
66	23600	17600
67	37700	40400
68	38000	46800
69	59000	75200
70	62000	14600
71	61600	74600
72	67500	11400
73	55600	64000
74	9900	77700
75	1200	19400
76	92000	11600
77	84600	38400
78	52500	2300
79	19900	34800
80	81300	87500
81	75700	59300
82	57300	35800
83	26400	44800
84	13200	55600
85	28900	76500
86	24600	26700
87	24500	87600
88	23500	59200
89	64800	79000
90	37800	75400
91	63600	65300
92	55500	18100
93	73800	44600
94	13000	83600
95	88200	94200
96	10200	78700
97	66900	90500
98	49000	4500
99	88300	54700
100	97100	63800
101	25600	22700
102	77500	93500
103	48900	41100
104	82600	22800
105	51400	86600
106	12900	56600
107	700	11800
108	41500	82000
109	16100	16000
110	2700	2100
111	69500	39500
112	6400	93700
113	12100	84700
114	77000	89600
115	26400	60700
116	17400	87100
117	2000	54600
118	98600	80300
119	37900	25900
120	72800	18000
121	68600	27300
122	13300	86900
123	15700	49900
124	78400	18600
125	64900	93400
126	99900	23600
127	67000	61500
128	97800	47900
129	64600	82300
130	19300	56500
131	44000	53400
132	2600	41100
133	11400	12600
134	66100	52800
135	94600	32600
136	22300	60200
137	69500	42000
138	17200	31700
139	11600	70100
140	94000	43800
141	73200	17200
142	82400	13600
143	83700	50700
144	12500	57000
145	77300	24100
146	54200	70800
147	44100	23500
148	80800	41300
149	6800	37400
150	58200	76800
151	22000	51900
152	59300	65100
153	7100	71200
154	2600	56900
155	91800	62900
156	16500	73100
157	94100	28200
158	28500	37900
159	22700	97700
160	78800	36600
161	3300	50700
162	59700	98300
163	29900	61700
164	79900	3500
165	41400	69700
166	52900	17800
167	23500	74300
168	11800	48400
169	34900	55400
170	47700	28000
171	59100	18900
172	74300	22100
173	80700	67000
174	16300	62100
175	87400	93200
176	24500	2400
177	96000	2700
178	13900	4400
179	4500	58400
180	28100	43400
181	68400	50100
182	28400	41400
183	2000	90500
184	8000	25600
185	5700	35400
186	30600	10700
187	16700	28900
188	95200	6600
189	86200	74100
190	24000	51600
191	80600	27700
192	78200	70000
193	8200	20800
194	95100	55000
195	71000	4400
196	53700	76400
197	40700	19100
198	62900	13300
199	60800	91100
200	76000	12500
201	72700	51700
202	29500	70600
203	67900	83600
204	7300	42000
205	63700	90300
206	29700	72300
207	5500	92000
208	67600	55000
209	93300	45600
210	81200	15500
211	32600	90300
212	84600	18100
213	11600	17500
214	34400	99200
215	2800	66700
216	43900	24500
217	89100	45000
218	22400	73200
219	15600	73400
220	39000	44100
221	66300	56000
222	11500	89600
223	65500	76600
224	21000	73100
225	4200	17600
226	50500	51700
227	92300	6600
228	49000	84400
229	34200	85900
230	21000	64400
231	31300	7900
232	39900	77500
233	7900	55900
234	87600	84300
235	63100	88900
236	18200	28400
237	47100	12000
DEMAND_SECTION
1	0
2	1
3	1
4	1
5	1
6	1
7	1
8	1
9	1
10	1
11	1
12	1
13	1
14	1
15	1
16	1
17	1
18	1
19	1
20	1
21	1
22	1
23	1
24	1
25	1
26	1
27	1
28	1
29	1
30	1
31	1
32	1
33	1
34	1
35	1
36	1
37	1
38	1
39	1
40	1
41	1
42	1
43	1
44	1
45	1
46	1
47	1
48	1
49	1
50	1
51	1
52	1
53	1
54	1
55	1
56	1
57	1
58	1
59	1
60	1
61	1
62	1
63	1
64	1
65	1
66	1
67	1
68	1
69	1
70	1
71	1
72	1
73	1
74	1
75	1
76	1
77	1
78	1
79	1
80	1
81	1
82	1
83	1
84	1
85	1
86	1
87	1
88	1
89	1
90	1
91	1
92	1
93	1
94	1
95	1
96	1
97	1
98	1
99	1
100	1
101	1
102	1
103	1
104	1
105	1
106	1
107	1
108	1
109	1
110	1
111	1
112	1
113	1
114	1
115	1
116	1
117	1
118	1
119	1
120	1
121	1
122	1
123	1
124	1
125	1
126	1
127	1
128	1
129	1
130	1
131	1
132	1
133	1
134	1
135	1
136	1
137	1
138	1
139	1
140	1
141	1
142	1
143	1
144	1
145	1
146	1
147	1
148	1
149	1
150	1
151	1
152	1
153	1
154	1
155	1
156	1
157	1
158	1
159	1
160	1
161	1
162	1
163	1
164	1
165	1
166	1
167	1
168	1
169	1
170	1
171	1
172	1
173	1
174	1
175	1
176	1
177	1
178	1
179	1
180	1
181	1
182	1
183	1
184	1
185	1
186	1
187	1
188	1
189	1
190	1
191	1
192	1
193	1
194	1
195	1
196	1
197	1
198	1
199	1
200	1
201	1
202	1
203	1
204	1
205	1
206	1
207	1
208	1
209	1
210	1
211	1
212	1
213	1
214	1
215	1
216	1
217	1
218	1
219	1
220	1
221	1
222	1
223	1
224	1
225	1
226	1
227	1
228	1
229	1
230	1
231	1
232	1
233	1
234	1
235	1
236	1
237	1
DEPOT_SECTION
1
-1
EOF
