experiment/data/lkh-res/Vrp-Set-X-n237/Vrp-Set-X-n237-lkh/0.lkh1.tour
NAME : 0.2723019.tour
COMMENT : Length = 2723019
COMMENT : Found by LKH-3 [Keld Helsgaun] Tue Apr  9 04:27:12 2024
TYPE : TOUR
DIMENSION : 250
TOUR_SECTION
1
103
41
221
208
134
181
201
19
99
17
65
143
16
93
137
111
82
170
239
39
10
47
133
213
236
187
138
79
15
204
2
149
185
184
193
225
107
240
45
73
152
31
91
25
63
71
223
89
53
69
150
28
196
146
3
131
244
48
109
101
86
26
158
182
180
83
22
68
220
67
14
11
119
9
66
248
40
78
57
195
200
124
210
142
212
104
191
145
172
120
141
72
98
176
245
37
217
209
140
128
13
194
61
100
155
56
43
42
173
20
81
127
226
250
30
121
21
160
148
77
33
135
157
126
76
18
227
188
177
64
5
164
243
233
23
74
96
59
113
122
222
54
46
183
207
112
32
159
87
116
94
246
75
132
12
161
117
154
179
36
215
153
139
8
174
144
106
84
123
168
247
51
130
136
230
34
219
156
224
218
167
206
202
163
115
88
151
190
60
249
44
186
197
52
49
216
147
166
92
171
7
70
198
55
237
24
231
178
241
192
189
118
38
95
175
234
80
114
102
97
125
205
235
35
50
203
129
242
85
27
229
211
214
62
6
58
162
4
199
105
228
108
232
90
165
169
238
29
110
-1
EOF
